CMD:
./solvers/bin/cadical --plain --no-reduce -t 1600 ./data/cnfs//viscoherencep3/viscoherencep3.100.cnf

c --- [ banner ] -------------------------------------------------------------
c 
c CaDiCaL SAT Solver
c Copyright (c) 2016-2024
c A. Biere, M. Fleury, N. Froleyks, K. Fazekas, F. Pollitt, T. Faller
c JKU Linz, University of Freiburg, TU Wien
c 
c Version 2.1.3 5296d3d2a9bf48c154ab2acb5e44625776d821bf
c g++ (Gentoo 12.3.1_p20230526 p2) 12.3.1 20230526 -Wall -Wextra -O3 -DNDEBUG
c Sat Aug 9 07:26:21 PDT 2025 Linux cedar2.int.cedar.computecanada.ca 5.14.0-362.24.2.el9_3.x86_64 x86_64
c 
c --- [ limit ] --------------------------------------------------------------
c 
c setting time limit to 1600 seconds real time (due to '-t 1600')
c 
c --- [ parsing input ] ------------------------------------------------------
c 
c reading DIMACS file from './data/cnfs//viscoherencep3/viscoherencep3.100.cnf'
c opening file to read './data/cnfs//viscoherencep3/viscoherencep3.100.cnf'
c found 'p cnf 163657 488170' header
c parsed 488170 clauses in 0.07 seconds process time
c 
c --- [ options ] ------------------------------------------------------------
c 
c   --compact=false                (different from default 'true')
c   --decompose=false              (different from default 'true')
c   --deduplicate=false            (different from default 'true')
c   --elim=false                   (different from default 'true')
c   --probe=false                  (different from default 'true')
c   --reduce=false                 (different from default 'true')
c   --subsume=false                (different from default 'true')
c   --ternary=false                (different from default 'true')
c   --transred=false               (different from default 'true')
c   --vivify=false                 (different from default 'true')
c 
c --- [ solving ] ------------------------------------------------------------
c 
c time measured in process time since initialization
c 
c  seconds  reductions  redundant  irredundant
c         MB    restarts       trail       variables
c          level   conflicts       glue          remaining
c 
c *  0.07 78  0 0   0    0    0  0% 0 484646 161417 99%
c {  0.09 80  0 0   0    0    0  0% 0 484646 161417 99%
c i  0.11 81 33 0  58  615  560  3% 2 484646 161408 99%
c i  0.11 81 31 0  84  801  736  3% 2 484646 161407 99%
c i  0.12 81 29 0 105  878  809  3% 2 484646 161399 99%
c i  0.12 81 29 0 116  920  843  3% 2 484646 161397 99%
c i  0.12 81 28 0 116  948  870  3% 2 484646 161392 99%
c }  0.12 81 28 0 126 1001  923  3% 2 484646 161392 99%
c [  0.12 81  0 0 126 1001  923  0% 0 484646 161392 99%
c O  0.12 81 10 0 126 1002  924  4% 1 484646 161392 99%
c i  0.19 81 467 0 126 1407 1314 74% 3 484646 161387 99%
c i  0.22 81 493 0 127 2165 1986 77% 4 484646 161382 99%
c i  0.28 81 441 0 127 2335 2145 69% 4 484646 161381 99%
c ]  0.32 81 376 0 127 3001 2751 53% 4 484646 161381 99%
c {  0.32 81 28 0 127 3001 2751  3% 2 484646 161381 99%
c F  0.32 81 28 0 128 3005 2755  3% 2 484646 161381 99%
c i  0.32 81 28 0 128 3023 2772  3% 2 484646 161380 99%
c i  0.32 81 28 0 128 3041 2785  3% 2 484646 161377 99%
c i  0.34 81 28 0 195 3409 3113  3% 3 484646 161376 99%
c i  0.36 82 28 0 291 3991 3637  4% 3 484646 161375 99%
c 
c  seconds  reductions  redundant  irredundant
c         MB    restarts       trail       variables
c          level   conflicts       glue          remaining
c 
c i  0.37 82 28 0 320 4102 3734  4% 3 484646 161363 99%
c i  0.43 82 31 0 485 5662 5185  5% 3 484646 161362 99%
c #  0.46 82 30 0 563 6007 5508  5% 3 484646 161362 99%
c i  0.46 82 30 0 572 6152 5646  5% 3 484646 161356 99%
c i  0.46 82 30 0 576 6222 5708  5% 3 484646 161355 99%
c }  0.50 82 30 0 644 7001 6429  5% 3 484646 161355 99%
c [  0.50 82 376 0 644 7001 6429 53% 4 484646 161355 99%
c i  0.51 82 326 0 645 7365 6774 46% 4 484646 161354 99%
c i  0.52 82 305 0 645 7554 6950 43% 4 484646 161353 99%
c i  0.54 82 285 0 645 7852 7227 41% 4 484646 161352 99%
c i  0.54 82 281 0 645 7904 7274 40% 4 484646 161351 99%
c i  0.59 83 252 0 646 9485 8709 34% 4 484646 161350 99%
c I  0.62 83 242 0 646 10008 9197 32% 4 484646 161350 99%
c i  0.69 83 209 0 647 11198 10300 28% 4 484646 161349 99%
c i  0.74 83 191 0 648 11988 11012 26% 4 484646 161348 99%
c i  0.78 83 183 0 648 12709 11676 25% 4 484646 161347 99%
c i  0.80 83 183 0 648 13298 12205 24% 4 484646 161346 99%
c ]  0.93 84 189 0 649 15001 13744 24% 5 484646 161346 99%
c {  0.93 84 30 0 649 15001 13744  5% 3 484646 161346 99%
c B  0.93 84 30 0 650 15010 13753  5% 3 484646 161346 99%
c 
c  seconds  reductions    redundant  irredundant
c         MB    restarts         trail       variables
c          level    conflicts        glue          remaining
c 
c i  0.94 84 30 0 696 15187 13905  5% 3 484646 161345 99%
c i  0.95 84 30 0 714 15281 13986  5% 3 484646 161344 99%
c i  0.95 84 30 0 717 15298 13998  5% 3 484646 161343 99%
c i  0.96 84 30 0 731 15367 14065  5% 3 484646 161339 99%
... skipped 268 lines ...
c          MB     restarts            trail       variables
c           level      conflicts          glue          remaining
c 
c i 45.50 135 59 0 17731 294360 254403 15% 6 475165 159765 98%
c i 45.56 135 59 0 17772 294781 254795 15% 6 475165 159755 98%
c i 45.58 135 59 0 17785 294876 254879 14% 6 475165 159736 98%
c i 45.64 135 59 0 17817 295199 255182 14% 6 475165 159716 98%
c i 45.78 136 59 0 17901 296021 255931 14% 6 475165 159715 98%
c i 45.83 136 59 0 17906 296411 256266 14% 6 475165 159700 98%
c i 45.84 136 59 0 17906 296435 256285 14% 6 475165 159644 98%
c i 45.86 136 59 0 17906 296636 256473 14% 6 475165 159586 98%
c i 46.02 136 58 0 17945 297813 257533 14% 6 475165 159585 98%
c i 46.07 136 58 0 17984 298167 257842 14% 6 475165 159573 98%
c i 46.12 136 58 0 17989 298539 258183 14% 6 475165 159551 97%
c i 46.14 136 58 0 17996 298815 258439 14% 6 475165 159550 97%
c i 46.15 136 58 0 18000 298885 258502 14% 6 475165 159519 97%
c i 46.15 136 58 0 18001 298905 258519 14% 6 475165 159518 97%
c i 46.15 136 58 0 18001 298907 258520 14% 6 475165 159517 97%
c i 46.24 136 57 0 18030 299536 259058 14% 6 475165 159502 97%
c i 46.27 136 57 0 18032 299753 259259 14% 6 475165 159500 97%
c B 46.32 136 57 0 18049 300051 259536 14% 6 475165 159500 97%
c i 46.37 136 57 0 18080 300335 259782 14% 6 475165 159480 97%
c i 46.39 136 57 0 18086 300575 259994 14% 6 475165 159462 97%
c 
c  seconds   reductions       redundant   irredundant
c          MB     restarts            trail       variables
c           level      conflicts          glue          remaining
c 
c i 46.40 136 57 0 18086 300642 260056 14% 6 475165 159461 97%
c i 46.43 136 57 0 18106 300770 260176 14% 6 475165 159431 97%
c i 46.44 136 57 0 18116 300877 260269 14% 6 475165 159392 97%
c i 46.50 137 57 0 18150 301410 260746 14% 6 475165 159377 97%
c i 46.53 137 57 0 18169 301566 260892 14% 6 475165 159365 97%
c i 46.59 137 56 0 18224 302020 261308 14% 6 475165 159364 97%
c i 46.59 137 56 0 18225 302032 261319 14% 6 475165 159363 97%
c i 46.69 137 56 0 18295 302764 261957 14% 6 475165 159357 97%
c i 46.71 137 56 0 18295 302964 262142 14% 6 475165 159356 97%
c i 46.85 137 55 0 18411 303865 262933 14% 6 475165 159341 97%
c i 46.89 137 55 0 18462 304129 263160 14% 6 475165 159340 97%
c i 46.96 137 55 0 18495 304656 263464 14% 6 475165 159260 97%
c i 46.97 137 55 0 18495 304701 263497 14% 6 475165 159196 97%
c i 46.97 137 55 0 18495 304702 263497 14% 6 475165 159195 97%
c i 46.97 137 55 0 18495 304703 263497 14% 6 475165 159194 97%
c i 46.97 137 55 0 18495 304704 263497 14% 6 475165 159137 97%
c } 46.97 137 55 0 18495 304722 263502 14% 6 475165 156893 96%
c 0 46.97 137 55 0 18495 304722 263502 14% 6 475165 156893 96%
c 
c --- [ result ] -------------------------------------------------------------
c 
s UNSATISFIABLE
c 
c --- [ run-time profiling ] -------------------------------------------------
c 
c process time taken by individual solving procedures
c (percentage relative to process time for solving)
c 
c        46.90  100.00% search
c        23.05   49.15% stable
c        23.00   49.05% unstable
c         0.82    1.75% walk
c         0.07    0.15% parse
c         0.02    0.04% lucky
c         0.00    0.00% simplify
c   =================================
c        46.90   99.85% solve
c 
c last line shows process time for solving
c (percentage relative to total process time)
c 
c --- [ statistics ] ---------------------------------------------------------
c 
c chronological:            110294        36.19 %  of conflicts
c conflicts:                304722      6497.47    per second
c decisions:               1086214     23160.92    per second
c fixed:                      6764         4.13 %  of all variables
c learned:                  295997        97.14 %  per conflict
c learned_lits:           12694686       100.00 %  learned literals
c minimized:                     0         0.00 %  learned literals
c shrunken:                2302764        18.14 %  learned literals
c minishrunken:            3352411        26.41 %  learned literals
c otfs:                       2221         0.73 %  of conflict
c propagations:          655083408        13.97 M  per second
c rephased:                     24     12696.75    interval
c restarts:                  18495        16.48    interval
c stabilizing:                   4        55.77 %  of conflicts
c subsumed:                  26219         3.36 %  of all clauses
c strengthened:               2151         0.28 %  of all clauses
c walked:                        6     50787.00    interval
c 
c seconds are measured in process time for solving
c 
c --- [ resources ] ----------------------------------------------------------
c 
c total process time since initialization:        46.97    seconds
c total real time since initialization:           47.26    seconds
c maximum resident set size of process:          156.45    MB
c 
c --- [ shutting down ] ------------------------------------------------------
c 
c exit 20
